2331.4
0 2 3 4 7 26 0
0 8 9 13 71 29 5 0
0 10 11 12 15 35 0
0 14 16 17 19 22 0
0 20 21 23 24 25 0
0 27 28 1 40 72 0
0 31 32 33 34 0
0 36 37 38 39 41 49 18 0
0 42 43 44 45 30 0
0 46 47 48 50 51 0
0 52 53 54 55 56 65 0
0 57 58 59 60 61 63 0
0 62 64 66 68 73 0
0 67 69 70 74 75 6 0
